50 3
1197
665
399
133
665
931
1197
532
399
1330
1064
133
532
1064
665
1064
532
133
266
1064
665
532
1197
133
931
798
1064
931
1197
133
399
266
1064
1197
931
1064
931
532
1197
133
1197
532
532
399
266
798
399
266
1197
133
9603
4056
21320
